
List of user-set options:

                                    Name   Value                used
                           compl_inf_tol = 1                     yes
                         constr_viol_tol = 1                     yes
                            dual_inf_tol = 1000                  yes
                           linear_solver = ma97                  yes
                              ma86_small = 1e-30                  no
                                  ma86_u = 0.0001                 no
                              ma97_order = best                  yes
                              ma97_small = 1e-30                 yes
                            ma97_switch1 = at_start              yes
                            ma97_switch2 = od_hd_reuse           yes
                                  ma97_u = 1e-06                 yes
                               ma97_umax = 0.5                   yes
                                max_iter = 1000                  yes
                    max_refinement_steps = 20                    yes
                    min_refinement_steps = 5                     yes
                                 mu_init = 1e-06                 yes
           mu_superlinear_decrease_power = 1.25                  yes
                   nlp_scaling_min_value = 1e-08                 yes
                        option_file_name = Preset_Case_487_pf.opt  yes
                             output_file = ./tmp/Preset_Case_487_pf.output  yes
                      print_user_options = yes                   yes
        required_infeasibility_reduction = 1                      no
                                     tol = 1e-08                 yes
                   warm_start_bound_frac = 1e-20                 yes
                   warm_start_bound_push = 1e-20                 yes
                   warm_start_init_point = yes                   yes
              warm_start_mult_bound_push = 1e-20                 yes
                warm_start_mult_init_max = 1e+40                 yes
             warm_start_slack_bound_frac = 1e-20                 yes
             warm_start_slack_bound_push = 1e-20                 yes

******************************************************************************
This program contains Ipopt, a library for large-scale nonlinear optimization.
 Ipopt is released as open source code under the Eclipse Public License (EPL).
         For more information visit http://projects.coin-or.org/Ipopt
******************************************************************************

This is Ipopt version 3.12.10, running with linear solver ma97.

Number of nonzeros in equality constraint Jacobian...:   123442
Number of nonzeros in inequality constraint Jacobian.:      213
Number of nonzeros in Lagrangian Hessian.............:    49069

Total number of variables............................:    31591
                     variables with only lower bounds:    12912
                variables with lower and upper bounds:    15130
                     variables with only upper bounds:        0
Total number of equality constraints.................:    31483
Total number of inequality constraints...............:       25
        inequality constraints with only lower bounds:        4
   inequality constraints with lower and upper bounds:        0
        inequality constraints with only upper bounds:       21

iter    objective    inf_pr   inf_du lg(mu)  ||d||  lg(rg) alpha_du alpha_pr  ls
   0 -4.7837189e+00 4.04e-03 1.02e+00  -6.0 0.00e+00    -  0.00e+00 0.00e+00   0
   1 -4.7830521e+00 4.03e-03 1.02e+00  -6.0 5.11e+05    -  1.65e-04 2.69e-05h  7
   2 -4.7859359e+00 3.30e-03 2.82e+01  -6.0 1.53e+04    -  1.25e-01 1.99e-03f  1
   3 -4.7931364e+00 3.86e-03 2.78e+01  -6.0 1.50e+04    -  3.71e-03 4.97e-03f  1
   4 -5.0114397e+00 2.16e+00 8.39e+02  -6.0 1.46e+04    -  1.93e-01 1.60e-01f  1
   5 -5.3101359e+00 6.23e+00 2.78e+03  -6.0 9.67e+03    -  1.44e-01 3.94e-01h  1
   6 -5.3501385e+00 5.44e+00 2.43e+03  -6.0 3.38e+03    -  3.01e-01 1.68e-01h  1
   7 -5.3805080e+00 1.86e+01 2.11e+03  -6.0 5.22e+03    -  3.50e-02 1.68e-01h  1
   8 -5.3800756e+00 1.84e+01 2.09e+03  -6.0 5.88e+00  -4.0 5.18e-01 7.90e-03h  1
   9 -5.4037718e+00 4.19e+01 1.49e+03  -6.0 2.40e+03    -  4.55e-02 5.02e-01h  1
iter    objective    inf_pr   inf_du lg(mu)  ||d||  lg(rg) alpha_du alpha_pr  ls
  10 -5.4036211e+00 4.18e+01 1.48e+03  -6.0 6.98e+01  -4.5 1.15e-02 2.19e-03h  1
  11 -5.4453135e+00 3.03e+01 1.19e+03  -6.0 4.14e+03    -  1.44e-03 2.76e-01f  1
  12 -5.4412792e+00 2.82e+01 1.11e+03  -6.0 8.99e+00  -5.0 1.22e-01 7.00e-02h  1
  13 -5.4613249e+00 1.99e+01 8.32e+02  -6.0 2.30e+03    -  6.25e-04 2.98e-01h  1
  14 -5.4543771e+00 1.72e+01 1.81e+04  -6.0 2.33e+02  -5.4 2.00e-01 1.35e-01h  1
  15 -5.4543789e+00 1.72e+01 1.80e+04  -6.0 4.14e+04    -  8.24e-04 3.83e-07h  2
  16 -5.4963430e+00 1.69e+01 1.79e+04  -6.0 4.74e+04    -  9.14e-03 1.79e-02h  1
  17 -5.6084088e+00 1.75e+01 1.45e+04  -6.0 3.73e+03    -  1.40e-01 6.87e-01f  1
  18 -5.6071715e+00 1.69e+01 1.37e+04  -6.0 6.17e+03    -  7.62e-02 3.90e-02h  3
  19 -5.6061519e+00 1.63e+01 1.31e+04  -6.0 6.35e+03    -  6.79e-02 3.31e-02h  3
iter    objective    inf_pr   inf_du lg(mu)  ||d||  lg(rg) alpha_du alpha_pr  ls
  20 -5.6060699e+00 1.62e+01 1.31e+04  -6.0 2.08e+04    -  7.98e-03 3.24e-03h  3
  21 -5.6057333e+00 1.61e+01 1.29e+04  -6.0 9.91e+03    -  1.60e-02 1.17e-02h  2
  22 -5.6042727e+00 1.53e+01 1.15e+04  -6.0 4.46e+03    -  3.82e-01 4.82e-02h  1
  23 -5.5948543e+00 1.14e+01 8.88e+03  -6.0 2.73e+03    -  1.53e-01 3.18e-01H  1
  24 -5.5929707e+00 1.04e+01 9.26e+03  -6.0 2.56e+03    -  2.70e-01 9.82e-02h  1
  25 -5.5897761e+00 8.72e+00 8.49e+03  -6.0 1.68e+03    -  2.49e-01 1.91e-01h  3
  26 -5.5839426e+00 1.21e+01 3.20e+03  -6.0 1.32e+03    -  3.62e-01 5.06e-01h  1
  27 -5.5844413e+00 6.53e+00 3.18e+04  -6.0 9.20e+02    -  9.20e-01 4.90e-01h  1
  28 -5.5919466e+00 1.48e+00 1.78e+04  -6.0 2.51e+02    -  7.88e-01 9.65e-01h  1
  29 -5.5962767e+00 1.32e+00 3.45e+05  -6.0 6.57e+02    -  6.97e-02 2.31e-01h  1
iter    objective    inf_pr   inf_du lg(mu)  ||d||  lg(rg) alpha_du alpha_pr  ls
  30 -5.5972581e+00 1.28e+00 1.05e+06  -6.0 6.17e+02    -  4.59e-01 3.70e-02h  1
  31 -5.6060898e+00 1.24e+00 7.54e+05  -6.0 5.08e+02    -  5.18e-01 3.66e-01h  1
  32 -5.6060925e+00 1.24e+00 7.45e+05  -6.0 1.68e+02  -5.9 2.53e-03 5.04e-05h  1
  33 -5.6060685e+00 1.24e+00 7.43e+05  -6.0 7.19e+03    -  4.84e-03 1.20e-03f  7
  34 -5.6180279e+00 9.20e-01 4.71e+05  -6.0 2.56e+02    -  7.80e-01 5.58e-01h  1
  35 -5.6246524e+00 8.86e-01 2.21e+06  -6.0 5.97e+02    -  2.37e-02 2.26e-01h  1
  36 -5.6248251e+00 8.79e-01 2.21e+06  -6.0 5.70e+02  -5.5 7.98e-03 8.08e-03h  1
  37 -5.6350675e+00 7.89e-01 2.33e+06  -6.0 1.60e+02  -6.0 1.00e+00 1.05e-01f  1
  38 -5.6441005e+00 1.45e+00 2.38e+06  -6.0 4.92e+02    -  1.21e-01 4.66e-01h  1
  39 -5.6449075e+00 1.05e+00 1.70e+06  -6.0 1.78e+02    -  4.43e-01 2.86e-01h  1
iter    objective    inf_pr   inf_du lg(mu)  ||d||  lg(rg) alpha_du alpha_pr  ls
  40 -5.6425882e+00 1.05e+00 1.12e+04  -6.0 1.82e+02    -  1.00e+00 1.00e+00h  1
  41 -5.6321352e+00 1.07e+00 2.59e+03  -6.0 2.11e+02    -  1.69e-01 7.74e-01h  1
  42 -5.6298704e+00 2.38e-01 5.42e+06  -6.0 2.38e+02    -  2.05e-03 1.00e+00H  1
  43 -5.6317593e+00 5.44e-01 2.08e+03  -6.0 1.67e+02    -  1.00e+00 1.00e+00h  1
  44 -5.6326550e+00 1.66e-01 6.76e+02  -6.0 5.24e+01    -  1.00e+00 6.94e-01h  1
  45 -5.6316799e+00 3.12e-03 5.13e+00  -6.0 1.09e+01    -  1.00e+00 1.00e+00h  1
  46 -5.6320432e+00 5.72e-04 5.71e-02  -6.0 3.74e+00    -  1.00e+00 1.00e+00h  1
  47 -5.6320694e+00 5.74e-05 5.48e-03  -6.0 1.18e+00    -  1.00e+00 1.00e+00h  1
  48 -5.6320690e+00 2.79e-08 3.93e-06  -6.0 2.61e-02    -  1.00e+00 1.00e+00h  1
  49 -5.6323182e+00 8.34e+00 1.95e+01  -7.5 9.44e+02    -  6.02e-01 6.47e-01h  1
iter    objective    inf_pr   inf_du lg(mu)  ||d||  lg(rg) alpha_du alpha_pr  ls
  50 -5.6323427e+00 7.18e+00 7.60e+00  -7.5 6.13e+02    -  7.45e-01 7.60e-01h  1
  51 -5.6323076e+00 8.76e-02 1.34e-01  -7.5 6.24e+01    -  1.00e+00 1.00e+00h  1
  52 -5.6323064e+00 1.01e-02 8.21e-04  -7.5 2.04e+01    -  1.00e+00 1.00e+00h  1
  53 -5.6323064e+00 2.70e-04 2.01e-05  -7.5 3.34e+00    -  1.00e+00 1.00e+00h  1
  54 -5.6323064e+00 5.75e-08 4.73e-09  -7.5 4.86e-02    -  1.00e+00 1.00e+00h  1
  55 -5.6323081e+00 6.87e-03 8.91e-01  -9.0 2.15e+01    -  9.22e-01 8.25e-01h  1
  56 -5.6323084e+00 3.43e-04 8.88e-04  -9.0 3.95e+00    -  1.00e+00 1.00e+00h  1
  57 -5.6323084e+00 2.84e-10 2.88e-09  -9.0 3.67e-03    -  1.00e+00 1.00e+00h  1

Number of Iterations....: 57

                                   (scaled)                 (unscaled)
Objective...............:  -4.4002409262258464e+00   -5.6323083855690834e+00
Dual infeasibility......:   2.8772487230834326e-09    3.6828783655467937e-09
Constraint violation....:   2.8373085684315485e-10    2.8373085684315485e-10
Complementarity.........:   1.0763075762753703e-09    1.3776736976324738e-09
Overall NLP error.......:   2.8772487230834326e-09    3.6828783655467937e-09


Number of objective function evaluations             = 94
Number of objective gradient evaluations             = 58
Number of equality constraint evaluations            = 94
Number of inequality constraint evaluations          = 94
Number of equality constraint Jacobian evaluations   = 58
Number of inequality constraint Jacobian evaluations = 58
Number of Lagrangian Hessian evaluations             = 57
Total CPU secs in IPOPT (w/o function evaluations)   =    105.713
Total CPU secs in NLP function evaluations           =      2.397

EXIT: Optimal Solution Found.
